c Generated map
c Size: 12 * 12, weights in range: 1 to 10, walls: False, with ratio 0.0
c dim 4 of 5
c
p sp 144 264
c graph contains 144 nodes and 264 arcs
c
a 1 13 1
a 13 1 1
a 1 2 2
a 2 1 2
a 2 14 6
a 14 2 6
a 2 3 4
a 3 2 4
a 3 15 9
a 15 3 9
a 3 4 10
a 4 3 10
a 4 16 4
a 16 4 4
a 4 5 9
a 5 4 9
a 5 17 4
a 17 5 4
a 5 6 8
a 6 5 8
a 6 18 6
a 18 6 6
a 6 7 8
a 7 6 8
a 7 19 9
a 19 7 9
a 7 8 8
a 8 7 8
a 8 20 1
a 20 8 1
a 8 9 9
a 9 8 9
a 9 21 7
a 21 9 7
a 9 10 9
a 10 9 9
a 10 22 6
a 22 10 6
a 10 11 7
a 11 10 7
a 11 23 2
a 23 11 2
a 11 12 1
a 12 11 1
a 12 24 8
a 24 12 8
a 13 25 10
a 25 13 10
a 13 14 6
a 14 13 6
a 14 26 5
a 26 14 5
a 14 15 10
a 15 14 10
a 15 27 9
a 27 15 9
a 15 16 4
a 16 15 4
a 16 28 1
a 28 16 1
a 16 17 4
a 17 16 4
a 17 29 3
a 29 17 3
a 17 18 7
a 18 17 7
a 18 30 7
a 30 18 7
a 18 19 10
a 19 18 10
a 19 31 5
a 31 19 5
a 19 20 6
a 20 19 6
a 20 32 2
a 32 20 2
a 20 21 6
a 21 20 6
a 21 33 1
a 33 21 1
a 21 22 4
a 22 21 4
a 22 34 5
a 34 22 5
a 22 23 9
a 23 22 9
a 23 35 8
a 35 23 8
a 23 24 1
a 24 23 1
a 24 36 5
a 36 24 5
a 25 37 6
a 37 25 6
a 25 26 5
a 26 25 5
a 26 38 3
a 38 26 3
a 26 27 4
a 27 26 4
a 27 39 9
a 39 27 9
a 27 28 10
a 28 27 10
a 28 40 8
a 40 28 8
a 28 29 4
a 29 28 4
a 29 41 4
a 41 29 4
a 29 30 8
a 30 29 8
a 30 42 5
a 42 30 5
a 30 31 6
a 31 30 6
a 31 43 4
a 43 31 4
a 31 32 4
a 32 31 4
a 32 44 5
a 44 32 5
a 32 33 9
a 33 32 9
a 33 45 5
a 45 33 5
a 33 34 10
a 34 33 10
a 34 46 10
a 46 34 10
a 34 35 5
a 35 34 5
a 35 47 3
a 47 35 3
a 35 36 7
a 36 35 7
a 36 48 8
a 48 36 8
a 37 49 10
a 49 37 10
a 37 38 6
a 38 37 6
a 38 50 7
a 50 38 7
a 38 39 7
a 39 38 7
a 39 51 7
a 51 39 7
a 39 40 5
a 40 39 5
a 40 52 7
a 52 40 7
a 40 41 1
a 41 40 1
a 41 53 1
a 53 41 1
a 41 42 7
a 42 41 7
a 42 54 7
a 54 42 7
a 42 43 8
a 43 42 8
a 43 55 3
a 55 43 3
a 43 44 7
a 44 43 7
a 44 56 8
a 56 44 8
a 44 45 5
a 45 44 5
a 45 57 10
a 57 45 10
a 45 46 1
a 46 45 1
a 46 58 9
a 58 46 9
a 46 47 6
a 47 46 6
a 47 59 4
a 59 47 4
a 47 48 1
a 48 47 1
a 48 60 9
a 60 48 9
a 49 61 5
a 61 49 5
a 49 50 3
a 50 49 3
a 50 62 10
a 62 50 10
a 50 51 1
a 51 50 1
a 51 63 5
a 63 51 5
a 51 52 6
a 52 51 6
a 52 64 2
a 64 52 2
a 52 53 9
a 53 52 9
a 53 65 2
a 65 53 2
a 53 54 2
a 54 53 2
a 54 66 1
a 66 54 1
a 54 55 9
a 55 54 9
a 55 67 10
a 67 55 10
a 55 56 2
a 56 55 2
a 56 68 1
a 68 56 1
a 56 57 10
a 57 56 10
a 57 69 10
a 69 57 10
a 57 58 7
a 58 57 7
a 58 70 1
a 70 58 1
a 58 59 10
a 59 58 10
a 59 71 1
a 71 59 1
a 59 60 10
a 60 59 10
a 60 72 5
a 72 60 5
a 61 73 1
a 73 61 1
a 61 62 5
a 62 61 5
a 62 74 6
a 74 62 6
a 62 63 10
a 63 62 10
a 63 75 7
a 75 63 7
a 63 64 2
a 64 63 2
a 64 76 8
a 76 64 8
a 64 65 6
a 65 64 6
a 65 77 1
a 77 65 1
a 65 66 5
a 66 65 5
a 66 78 9
a 78 66 9
a 66 67 7
a 67 66 7
a 67 79 8
a 79 67 8
a 67 68 9
a 68 67 9
a 68 80 4
a 80 68 4
a 68 69 7
a 69 68 7
a 69 81 5
a 81 69 5
a 69 70 3
a 70 69 3
a 70 82 9
a 82 70 9
a 70 71 2
a 71 70 2
a 71 83 2
a 83 71 2
a 71 72 4
a 72 71 4
a 72 84 10
a 84 72 10
a 73 85 3
a 85 73 3
a 73 74 1
a 74 73 1
a 74 86 5
a 86 74 5
a 74 75 10
a 75 74 10
a 75 87 6
a 87 75 6
a 75 76 8
a 76 75 8
a 76 88 7
a 88 76 7
a 76 77 8
a 77 76 8
a 77 89 6
a 89 77 6
a 77 78 7
a 78 77 7
a 78 90 4
a 90 78 4
a 78 79 7
a 79 78 7
a 79 91 4
a 91 79 4
a 79 80 9
a 80 79 9
a 80 92 4
a 92 80 4
a 80 81 5
a 81 80 5
a 81 93 2
a 93 81 2
a 81 82 8
a 82 81 8
a 82 94 8
a 94 82 8
a 82 83 4
a 83 82 4
a 83 95 8
a 95 83 8
a 83 84 9
a 84 83 9
a 84 96 8
a 96 84 8
a 85 97 5
a 97 85 5
a 85 86 1
a 86 85 1
a 86 98 3
a 98 86 3
a 86 87 3
a 87 86 3
a 87 99 5
a 99 87 5
a 87 88 1
a 88 87 1
a 88 100 4
a 100 88 4
a 88 89 2
a 89 88 2
a 89 101 8
a 101 89 8
a 89 90 4
a 90 89 4
a 90 102 3
a 102 90 3
a 90 91 4
a 91 90 4
a 91 103 5
a 103 91 5
a 91 92 6
a 92 91 6
a 92 104 10
a 104 92 10
a 92 93 9
a 93 92 9
a 93 105 3
a 105 93 3
a 93 94 6
a 94 93 6
a 94 106 7
a 106 94 7
a 94 95 3
a 95 94 3
a 95 107 4
a 107 95 4
a 95 96 5
a 96 95 5
a 96 108 4
a 108 96 4
a 97 109 5
a 109 97 5
a 97 98 5
a 98 97 5
a 98 110 7
a 110 98 7
a 98 99 7
a 99 98 7
a 99 111 1
a 111 99 1
a 99 100 2
a 100 99 2
a 100 112 10
a 112 100 10
a 100 101 3
a 101 100 3
a 101 113 10
a 113 101 10
a 101 102 4
a 102 101 4
a 102 114 9
a 114 102 9
a 102 103 7
a 103 102 7
a 103 115 7
a 115 103 7
a 103 104 7
a 104 103 7
a 104 116 8
a 116 104 8
a 104 105 1
a 105 104 1
a 105 117 5
a 117 105 5
a 105 106 9
a 106 105 9
a 106 118 2
a 118 106 2
a 106 107 3
a 107 106 3
a 107 119 5
a 119 107 5
a 107 108 6
a 108 107 6
a 108 120 8
a 120 108 8
a 109 121 1
a 121 109 1
a 109 110 3
a 110 109 3
a 110 122 9
a 122 110 9
a 110 111 2
a 111 110 2
a 111 123 7
a 123 111 7
a 111 112 10
a 112 111 10
a 112 124 7
a 124 112 7
a 112 113 7
a 113 112 7
a 113 125 2
a 125 113 2
a 113 114 8
a 114 113 8
a 114 126 10
a 126 114 10
a 114 115 1
a 115 114 1
a 115 127 2
a 127 115 2
a 115 116 2
a 116 115 2
a 116 128 2
a 128 116 2
a 116 117 6
a 117 116 6
a 117 129 4
a 129 117 4
a 117 118 5
a 118 117 5
a 118 130 7
a 130 118 7
a 118 119 1
a 119 118 1
a 119 131 6
a 131 119 6
a 119 120 9
a 120 119 9
a 120 132 9
a 132 120 9
a 121 133 5
a 133 121 5
a 121 122 2
a 122 121 2
a 122 134 4
a 134 122 4
a 122 123 2
a 123 122 2
a 123 135 6
a 135 123 6
a 123 124 2
a 124 123 2
a 124 136 6
a 136 124 6
a 124 125 1
a 125 124 1
a 125 137 6
a 137 125 6
a 125 126 5
a 126 125 5
a 126 138 9
a 138 126 9
a 126 127 6
a 127 126 6
a 127 139 4
a 139 127 4
a 127 128 5
a 128 127 5
a 128 140 4
a 140 128 4
a 128 129 1
a 129 128 1
a 129 141 5
a 141 129 5
a 129 130 3
a 130 129 3
a 130 142 1
a 142 130 1
a 130 131 10
a 131 130 10
a 131 143 9
a 143 131 9
a 131 132 7
a 132 131 7
a 132 144 5
a 144 132 5
a 133 134 8
a 134 133 8
a 134 135 10
a 135 134 10
a 135 136 9
a 136 135 9
a 136 137 10
a 137 136 10
a 137 138 4
a 138 137 4
a 138 139 9
a 139 138 9
a 139 140 1
a 140 139 1
a 140 141 9
a 141 140 9
a 141 142 9
a 142 141 9
a 142 143 10
a 143 142 10
a 143 144 8
a 144 143 8
